p wcnf 266 1387 334
34 1 0
48 2 0
72 3 0
91 4 0
37 5 0
15 6 0
36 7 0
334 -1 -20 21 0
334 -1 -21 22 0
334 -1 -22 23 0
334 -1 -23 24 0
334 -1 -24 25 0
334 -1 -25 26 0
334 -1 -26 27 0
334 -1 -27 28 0
334 -1 -28 29 0
334 -1 -29 30 0
334 -1 -30 31 0
334 -1 -31 32 0
334 -1 -32 33 0
334 -1 -33 34 0
334 -1 -35 36 0
334 -1 -36 37 0
334 -1 -37 38 0
334 -1 -38 39 0
334 -1 -39 40 0
334 -1 -40 41 0
334 -1 -41 42 0
334 -1 -42 43 0
334 -1 -43 44 0
334 -2 -57 58 0
334 -2 -58 59 0
334 -2 -59 60 0
334 -2 -60 61 0
334 -2 -61 62 0
334 -2 -62 63 0
334 -2 -63 64 0
334 -2 -64 65 0
334 -2 -65 66 0
334 -2 -66 67 0
334 -2 -67 68 0
334 -2 -68 69 0
334 -2 -69 70 0
334 -2 -70 71 0
334 -2 -72 73 0
334 -2 -73 74 0
334 -2 -74 75 0
334 -2 -75 76 0
334 -2 -76 77 0
334 -2 -77 78 0
334 -2 -78 79 0
334 -2 -79 80 0
334 -2 -80 81 0
334 -3 -94 95 0
334 -3 -95 96 0
334 -3 -96 97 0
334 -3 -97 98 0
334 -3 -98 99 0
334 -3 -99 100 0
334 -3 -100 101 0
334 -3 -101 102 0
334 -3 -102 103 0
334 -3 -103 104 0
334 -3 -104 105 0
334 -3 -105 106 0
334 -3 -106 107 0
334 -3 -107 108 0
334 -3 -109 110 0
334 -3 -110 111 0
334 -3 -111 112 0
334 -3 -112 113 0
334 -3 -113 114 0
334 -3 -114 115 0
334 -3 -115 116 0
334 -3 -116 117 0
334 -3 -117 118 0
334 -4 -131 132 0
334 -4 -132 133 0
334 -4 -133 134 0
334 -4 -134 135 0
334 -4 -135 136 0
334 -4 -136 137 0
334 -4 -137 138 0
334 -4 -138 139 0
334 -4 -139 140 0
334 -4 -140 141 0
334 -4 -141 142 0
334 -4 -142 143 0
334 -4 -143 144 0
334 -4 -144 145 0
334 -4 -146 147 0
334 -4 -147 148 0
334 -4 -148 149 0
334 -4 -149 150 0
334 -4 -150 151 0
334 -4 -151 152 0
334 -4 -152 153 0
334 -4 -153 154 0
334 -4 -154 155 0
334 -5 -168 169 0
334 -5 -169 170 0
334 -5 -170 171 0
334 -5 -171 172 0
334 -5 -172 173 0
334 -5 -173 174 0
334 -5 -174 175 0
334 -5 -175 176 0
334 -5 -176 177 0
334 -5 -177 178 0
334 -5 -178 179 0
334 -5 -179 180 0
334 -5 -180 181 0
334 -5 -181 182 0
334 -5 -183 184 0
334 -5 -184 185 0
334 -5 -185 186 0
334 -5 -186 187 0
334 -5 -187 188 0
334 -5 -188 189 0
334 -5 -189 190 0
334 -5 -190 191 0
334 -5 -191 192 0
334 -6 -205 206 0
334 -6 -206 207 0
334 -6 -207 208 0
334 -6 -208 209 0
334 -6 -209 210 0
334 -6 -210 211 0
334 -6 -211 212 0
334 -6 -212 213 0
334 -6 -213 214 0
334 -6 -214 215 0
334 -6 -215 216 0
334 -6 -216 217 0
334 -6 -217 218 0
334 -6 -218 219 0
334 -6 -220 221 0
334 -6 -221 222 0
334 -6 -222 223 0
334 -6 -223 224 0
334 -6 -224 225 0
334 -6 -225 226 0
334 -6 -226 227 0
334 -6 -227 228 0
334 -6 -228 229 0
334 -7 -242 243 0
334 -7 -243 244 0
334 -7 -244 245 0
334 -7 -245 246 0
334 -7 -246 247 0
334 -7 -247 248 0
334 -7 -248 249 0
334 -7 -249 250 0
334 -7 -250 251 0
334 -7 -251 252 0
334 -7 -252 253 0
334 -7 -253 254 0
334 -7 -254 255 0
334 -7 -255 256 0
334 -7 -257 258 0
334 -7 -258 259 0
334 -7 -259 260 0
334 -7 -260 261 0
334 -7 -261 262 0
334 -7 -262 263 0
334 -7 -263 264 0
334 -7 -264 265 0
334 -7 -265 266 0
334 -1 -2 9 46 0
334 -1 -2 -9 -72 0
334 -1 -2 -9 -73 0
334 -1 -2 -9 -74 0
334 -1 -2 -46 -35 0
334 -1 -2 -46 -36 0
334 -1 -2 -46 -37 0
334 -1 -2 -9 35 -75 0
334 -1 -2 -46 72 -38 0
334 -1 -2 -9 36 -76 0
334 -1 -2 -46 73 -39 0
334 -1 -2 -9 37 -77 0
334 -1 -2 -46 74 -40 0
334 -1 -2 -9 38 -78 0
334 -1 -2 -46 75 -41 0
334 -1 -2 -9 39 -79 0
334 -1 -2 -46 76 -42 0
334 -1 -2 -9 40 -80 0
334 -1 -2 -46 77 -43 0
334 -1 -2 -9 41 -81 0
334 -1 -2 -46 78 -44 0
334 -1 -2 8 45 9 46 0
334 -1 -2 -8 -57 0
334 -1 -2 -8 -58 0
334 -1 -2 -8 -59 0
334 -1 -2 -8 -60 0
334 -1 -2 -8 -61 0
334 -1 -2 -8 -62 0
334 -1 -2 -8 -63 0
334 -1 -2 -8 -64 0
334 -1 -2 -8 -65 0
334 -1 -2 -8 -66 0
334 -1 -2 -45 -20 0
334 -1 -2 -45 -21 0
334 -1 -2 -45 -22 0
334 -1 -2 -45 -23 0
334 -1 -2 -45 -24 0
334 -1 -2 -45 -25 0
334 -1 -2 -45 -26 0
334 -1 -2 -45 -27 0
334 -1 -2 -45 -28 0
334 -1 -2 -9 -72 0
334 -1 -2 -9 -73 0
334 -1 -2 -9 -74 0
334 -1 -2 -46 -35 0
334 -1 -2 -46 -36 0
334 -1 -2 -46 -37 0
334 -1 -2 -8 20 -67 0
334 -1 -2 -45 57 -29 0
334 -1 -2 -8 21 -68 0
334 -1 -2 -45 58 -30 0
334 -1 -2 -8 22 -69 0
334 -1 -2 -45 59 -31 0
334 -1 -2 -8 23 -70 0
334 -1 -2 -45 60 -32 0
334 -1 -2 -8 24 -71 0
334 -1 -2 -45 61 -33 0
334 -1 -2 -9 35 -75 0
334 -1 -2 -46 72 -38 0
334 -1 -2 -9 36 -76 0
334 -1 -2 -46 73 -39 0
334 -1 -2 -9 37 -77 0
334 -1 -2 -46 74 -40 0
334 -1 -2 -9 38 -78 0
334 -1 -2 -46 75 -41 0
334 -1 -2 -9 39 -79 0
334 -1 -2 -46 76 -42 0
334 -1 -2 -9 40 -80 0
334 -1 -2 -46 77 -43 0
334 -1 -2 -9 41 -81 0
334 -1 -2 -46 78 -44 0
334 -1 -3 11 83 0
334 -1 -3 -11 -109 0
334 -1 -3 -11 -110 0
334 -1 -3 -11 -111 0
334 -1 -3 -83 -35 0
334 -1 -3 -83 -36 0
334 -1 -3 -11 35 -112 0
334 -1 -3 -83 109 -37 0
334 -1 -3 -11 36 -113 0
334 -1 -3 -83 110 -38 0
334 -1 -3 -11 37 -114 0
334 -1 -3 -83 111 -39 0
334 -1 -3 -11 38 -115 0
334 -1 -3 -83 112 -40 0
334 -1 -3 -11 39 -116 0
334 -1 -3 -83 113 -41 0
334 -1 -3 -11 40 -117 0
334 -1 -3 -83 114 -42 0
334 -1 -3 -11 41 -118 0
334 -1 -3 -83 115 -43 0
334 -1 -3 10 82 11 83 0
334 -1 -3 -10 -94 0
334 -1 -3 -10 -95 0
334 -1 -3 -10 -96 0
334 -1 -3 -10 -97 0
334 -1 -3 -10 -98 0
334 -1 -3 -10 -99 0
334 -1 -3 -10 -100 0
334 -1 -3 -10 -101 0
334 -1 -3 -10 -102 0
334 -1 -3 -10 -103 0
334 -1 -3 -82 -20 0
334 -1 -3 -82 -21 0
334 -1 -3 -82 -22 0
334 -1 -3 -82 -23 0
334 -1 -3 -82 -24 0
334 -1 -3 -82 -25 0
334 -1 -3 -82 -26 0
334 -1 -3 -82 -27 0
334 -1 -3 -82 -28 0
334 -1 -3 -82 -29 0
334 -1 -3 -82 -30 0
334 -1 -3 -82 -31 0
334 -1 -3 -11 -109 0
334 -1 -3 -11 -110 0
334 -1 -3 -11 -111 0
334 -1 -3 -83 -35 0
334 -1 -3 -83 -36 0
334 -1 -3 -10 20 -104 0
334 -1 -3 -82 94 -32 0
334 -1 -3 -10 21 -105 0
334 -1 -3 -82 95 -33 0
334 -1 -3 -10 22 -106 0
334 -1 -3 -82 96 -34 0
334 -1 -3 -10 23 -107 0
334 -1 -3 -10 24 -108 0
334 -1 -3 -11 35 -112 0
334 -1 -3 -83 109 -37 0
334 -1 -3 -11 36 -113 0
334 -1 -3 -83 110 -38 0
334 -1 -3 -11 37 -114 0
334 -1 -3 -83 111 -39 0
334 -1 -3 -11 38 -115 0
334 -1 -3 -83 112 -40 0
334 -1 -3 -11 39 -116 0
334 -1 -3 -83 113 -41 0
334 -1 -3 -11 40 -117 0
334 -1 -3 -83 114 -42 0
334 -1 -3 -11 41 -118 0
334 -1 -3 -83 115 -43 0
334 -1 -4 13 120 0
334 -1 -4 -13 -146 0
334 -1 -4 -13 -147 0
334 -1 -4 -13 -148 0
334 -1 -4 -120 -35 0
334 -1 -4 -120 -36 0
334 -1 -4 -120 -37 0
334 -1 -4 -13 35 -149 0
334 -1 -4 -120 146 -38 0
334 -1 -4 -13 36 -150 0
334 -1 -4 -120 147 -39 0
334 -1 -4 -13 37 -151 0
334 -1 -4 -120 148 -40 0
334 -1 -4 -13 38 -152 0
334 -1 -4 -120 149 -41 0
334 -1 -4 -13 39 -153 0
334 -1 -4 -120 150 -42 0
334 -1 -4 -13 40 -154 0
334 -1 -4 -120 151 -43 0
334 -1 -4 -13 41 -155 0
334 -1 -4 -120 152 -44 0
334 -1 -4 12 119 13 120 0
334 -1 -4 -12 -131 0
334 -1 -4 -12 -132 0
334 -1 -4 -12 -133 0
334 -1 -4 -12 -134 0
334 -1 -4 -12 -135 0
334 -1 -4 -12 -136 0
334 -1 -4 -12 -137 0
334 -1 -4 -12 -138 0
334 -1 -4 -12 -139 0
334 -1 -4 -12 -140 0
334 -1 -4 -119 -20 0
334 -1 -4 -119 -21 0
334 -1 -4 -119 -22 0
334 -1 -4 -119 -23 0
334 -1 -4 -119 -24 0
334 -1 -4 -119 -25 0
334 -1 -4 -119 -26 0
334 -1 -4 -119 -27 0
334 -1 -4 -119 -28 0
334 -1 -4 -119 -29 0
334 -1 -4 -119 -30 0
334 -1 -4 -13 -146 0
334 -1 -4 -13 -147 0
334 -1 -4 -13 -148 0
334 -1 -4 -120 -35 0
334 -1 -4 -120 -36 0
334 -1 -4 -120 -37 0
334 -1 -4 -12 20 -141 0
334 -1 -4 -119 131 -31 0
334 -1 -4 -12 21 -142 0
334 -1 -4 -119 132 -32 0
334 -1 -4 -12 22 -143 0
334 -1 -4 -119 133 -33 0
334 -1 -4 -12 23 -144 0
334 -1 -4 -119 134 -34 0
334 -1 -4 -12 24 -145 0
334 -1 -4 -13 35 -149 0
334 -1 -4 -120 146 -38 0
334 -1 -4 -13 36 -150 0
334 -1 -4 -120 147 -39 0
334 -1 -4 -13 37 -151 0
334 -1 -4 -120 148 -40 0
334 -1 -4 -13 38 -152 0
334 -1 -4 -120 149 -41 0
334 -1 -4 -13 39 -153 0
334 -1 -4 -120 150 -42 0
334 -1 -4 -13 40 -154 0
334 -1 -4 -120 151 -43 0
334 -1 -4 -13 41 -155 0
334 -1 -4 -120 152 -44 0
334 -1 -5 15 157 0
334 -1 -5 -15 -183 0
334 -1 -5 -15 -184 0
334 -1 -5 -15 -185 0
334 -1 -5 -157 -35 0
334 -1 -5 -157 -36 0
334 -1 -5 -157 -37 0
334 -1 -5 -15 35 -186 0
334 -1 -5 -157 183 -38 0
334 -1 -5 -15 36 -187 0
334 -1 -5 -157 184 -39 0
334 -1 -5 -15 37 -188 0
334 -1 -5 -157 185 -40 0
334 -1 -5 -15 38 -189 0
334 -1 -5 -157 186 -41 0
334 -1 -5 -15 39 -190 0
334 -1 -5 -157 187 -42 0
334 -1 -5 -15 40 -191 0
334 -1 -5 -157 188 -43 0
334 -1 -5 -15 41 -192 0
334 -1 -5 -157 189 -44 0
334 -1 -5 14 156 15 157 0
334 -1 -5 -14 -168 0
334 -1 -5 -14 -169 0
334 -1 -5 -14 -170 0
334 -1 -5 -14 -171 0
334 -1 -5 -14 -172 0
334 -1 -5 -14 -173 0
334 -1 -5 -14 -174 0
334 -1 -5 -14 -175 0
334 -1 -5 -14 -176 0
334 -1 -5 -14 -177 0
334 -1 -5 -156 -20 0
334 -1 -5 -156 -21 0
334 -1 -5 -156 -22 0
334 -1 -5 -156 -23 0
334 -1 -5 -156 -24 0
334 -1 -5 -156 -25 0
334 -1 -5 -156 -26 0
334 -1 -5 -156 -27 0
334 -1 -5 -156 -28 0
334 -1 -5 -156 -29 0
334 -1 -5 -156 -30 0
334 -1 -5 -156 -31 0
334 -1 -5 -15 -183 0
334 -1 -5 -15 -184 0
334 -1 -5 -15 -185 0
334 -1 -5 -157 -35 0
334 -1 -5 -157 -36 0
334 -1 -5 -157 -37 0
334 -1 -5 -14 20 -178 0
334 -1 -5 -156 168 -32 0
334 -1 -5 -14 21 -179 0
334 -1 -5 -156 169 -33 0
334 -1 -5 -14 22 -180 0
334 -1 -5 -156 170 -34 0
334 -1 -5 -14 23 -181 0
334 -1 -5 -14 24 -182 0
334 -1 -5 -15 35 -186 0
334 -1 -5 -157 183 -38 0
334 -1 -5 -15 36 -187 0
334 -1 -5 -157 184 -39 0
334 -1 -5 -15 37 -188 0
334 -1 -5 -157 185 -40 0
334 -1 -5 -15 38 -189 0
334 -1 -5 -157 186 -41 0
334 -1 -5 -15 39 -190 0
334 -1 -5 -157 187 -42 0
334 -1 -5 -15 40 -191 0
334 -1 -5 -157 188 -43 0
334 -1 -5 -15 41 -192 0
334 -1 -5 -157 189 -44 0
334 -1 -6 17 194 0
334 -1 -6 -17 -220 0
334 -1 -6 -17 -221 0
334 -1 -6 -17 -222 0
334 -1 -6 -194 -35 0
334 -1 -6 -17 35 -223 0
334 -1 -6 -194 220 -36 0
334 -1 -6 -17 36 -224 0
334 -1 -6 -194 221 -37 0
334 -1 -6 -17 37 -225 0
334 -1 -6 -194 222 -38 0
334 -1 -6 -17 38 -226 0
334 -1 -6 -194 223 -39 0
334 -1 -6 -17 39 -227 0
334 -1 -6 -194 224 -40 0
334 -1 -6 -17 40 -228 0
334 -1 -6 -194 225 -41 0
334 -1 -6 -17 41 -229 0
334 -1 -6 -194 226 -42 0
334 -1 -6 16 193 17 194 0
334 -1 -6 -16 -205 0
334 -1 -6 -16 -206 0
334 -1 -6 -16 -207 0
334 -1 -6 -16 -208 0
334 -1 -6 -16 -209 0
334 -1 -6 -16 -210 0
334 -1 -6 -16 -211 0
334 -1 -6 -16 -212 0
334 -1 -6 -16 -213 0
334 -1 -6 -16 -214 0
334 -1 -6 -193 -20 0
334 -1 -6 -193 -21 0
334 -1 -6 -193 -22 0
334 -1 -6 -193 -23 0
334 -1 -6 -193 -24 0
334 -1 -6 -193 -25 0
334 -1 -6 -193 -26 0
334 -1 -6 -193 -27 0
334 -1 -6 -193 -28 0
334 -1 -6 -193 -29 0
334 -1 -6 -193 -30 0
334 -1 -6 -17 -220 0
334 -1 -6 -17 -221 0
334 -1 -6 -17 -222 0
334 -1 -6 -194 -35 0
334 -1 -6 -16 20 -215 0
334 -1 -6 -193 205 -31 0
334 -1 -6 -16 21 -216 0
334 -1 -6 -193 206 -32 0
334 -1 -6 -16 22 -217 0
334 -1 -6 -193 207 -33 0
334 -1 -6 -16 23 -218 0
334 -1 -6 -193 208 -34 0
334 -1 -6 -16 24 -219 0
334 -1 -6 -17 35 -223 0
334 -1 -6 -194 220 -36 0
334 -1 -6 -17 36 -224 0
334 -1 -6 -194 221 -37 0
334 -1 -6 -17 37 -225 0
334 -1 -6 -194 222 -38 0
334 -1 -6 -17 38 -226 0
334 -1 -6 -194 223 -39 0
334 -1 -6 -17 39 -227 0
334 -1 -6 -194 224 -40 0
334 -1 -6 -17 40 -228 0
334 -1 -6 -194 225 -41 0
334 -1 -6 -17 41 -229 0
334 -1 -6 -194 226 -42 0
334 -1 -7 18 230 0
334 -1 -7 -18 -242 0
334 -1 -7 -18 -243 0
334 -1 -7 -18 -244 0
334 -1 -7 -18 -245 0
334 -1 -7 -18 -246 0
334 -1 -7 -18 -247 0
334 -1 -7 -18 -248 0
334 -1 -7 -18 -249 0
334 -1 -7 -18 -250 0
334 -1 -7 -18 -251 0
334 -1 -7 -230 -20 0
334 -1 -7 -230 -21 0
334 -1 -7 -18 20 -252 0
334 -1 -7 -230 242 -22 0
334 -1 -7 -18 21 -253 0
334 -1 -7 -230 243 -23 0
334 -1 -7 -18 22 -254 0
334 -1 -7 -230 244 -24 0
334 -1 -7 -18 23 -255 0
334 -1 -7 -230 245 -25 0
334 -1 -7 -18 24 -256 0
334 -1 -7 -230 246 -26 0
334 -2 -3 48 85 0
334 -2 -3 -48 -109 0
334 -2 -3 -48 -110 0
334 -2 -3 -48 -111 0
334 -2 -3 -85 -72 0
334 -2 -3 -85 -73 0
334 -2 -3 -48 72 -112 0
334 -2 -3 -85 109 -74 0
334 -2 -3 -48 73 -113 0
334 -2 -3 -85 110 -75 0
334 -2 -3 -48 74 -114 0
334 -2 -3 -85 111 -76 0
334 -2 -3 -48 75 -115 0
334 -2 -3 -85 112 -77 0
334 -2 -3 -48 76 -116 0
334 -2 -3 -85 113 -78 0
334 -2 -3 -48 77 -117 0
334 -2 -3 -85 114 -79 0
334 -2 -3 -48 78 -118 0
334 -2 -3 -85 115 -80 0
334 -2 -3 47 84 48 85 0
334 -2 -3 -47 -94 0
334 -2 -3 -47 -95 0
334 -2 -3 -47 -96 0
334 -2 -3 -47 -97 0
334 -2 -3 -47 -98 0
334 -2 -3 -47 -99 0
334 -2 -3 -47 -100 0
334 -2 -3 -47 -101 0
334 -2 -3 -47 -102 0
334 -2 -3 -84 -57 0
334 -2 -3 -84 -58 0
334 -2 -3 -84 -59 0
334 -2 -3 -84 -60 0
334 -2 -3 -84 -61 0
334 -2 -3 -84 -62 0
334 -2 -3 -84 -63 0
334 -2 -3 -84 -64 0
334 -2 -3 -84 -65 0
334 -2 -3 -84 -66 0
334 -2 -3 -84 -67 0
334 -2 -3 -84 -68 0
334 -2 -3 -48 -109 0
334 -2 -3 -48 -110 0
334 -2 -3 -48 -111 0
334 -2 -3 -85 -72 0
334 -2 -3 -85 -73 0
334 -2 -3 -47 57 -103 0
334 -2 -3 -84 94 -69 0
334 -2 -3 -47 58 -104 0
334 -2 -3 -84 95 -70 0
334 -2 -3 -47 59 -105 0
334 -2 -3 -84 96 -71 0
334 -2 -3 -47 60 -106 0
334 -2 -3 -47 61 -107 0
334 -2 -3 -47 62 -108 0
334 -2 -3 -48 72 -112 0
334 -2 -3 -85 109 -74 0
334 -2 -3 -48 73 -113 0
334 -2 -3 -85 110 -75 0
334 -2 -3 -48 74 -114 0
334 -2 -3 -85 111 -76 0
334 -2 -3 -48 75 -115 0
334 -2 -3 -85 112 -77 0
334 -2 -3 -48 76 -116 0
334 -2 -3 -85 113 -78 0
334 -2 -3 -48 77 -117 0
334 -2 -3 -85 114 -79 0
334 -2 -3 -48 78 -118 0
334 -2 -3 -85 115 -80 0
334 -2 -4 50 122 0
334 -2 -4 -50 -146 0
334 -2 -4 -50 -147 0
334 -2 -4 -50 -148 0
334 -2 -4 -122 -72 0
334 -2 -4 -122 -73 0
334 -2 -4 -122 -74 0
334 -2 -4 -50 72 -149 0
334 -2 -4 -122 146 -75 0
334 -2 -4 -50 73 -150 0
334 -2 -4 -122 147 -76 0
334 -2 -4 -50 74 -151 0
334 -2 -4 -122 148 -77 0
334 -2 -4 -50 75 -152 0
334 -2 -4 -122 149 -78 0
334 -2 -4 -50 76 -153 0
334 -2 -4 -122 150 -79 0
334 -2 -4 -50 77 -154 0
334 -2 -4 -122 151 -80 0
334 -2 -4 -50 78 -155 0
334 -2 -4 -122 152 -81 0
334 -2 -4 49 121 50 122 0
334 -2 -4 -49 -131 0
334 -2 -4 -49 -132 0
334 -2 -4 -49 -133 0
334 -2 -4 -49 -134 0
334 -2 -4 -49 -135 0
334 -2 -4 -49 -136 0
334 -2 -4 -49 -137 0
334 -2 -4 -49 -138 0
334 -2 -4 -49 -139 0
334 -2 -4 -121 -57 0
334 -2 -4 -121 -58 0
334 -2 -4 -121 -59 0
334 -2 -4 -121 -60 0
334 -2 -4 -121 -61 0
334 -2 -4 -121 -62 0
334 -2 -4 -121 -63 0
334 -2 -4 -121 -64 0
334 -2 -4 -121 -65 0
334 -2 -4 -121 -66 0
334 -2 -4 -121 -67 0
334 -2 -4 -50 -146 0
334 -2 -4 -50 -147 0
334 -2 -4 -50 -148 0
334 -2 -4 -122 -72 0
334 -2 -4 -122 -73 0
334 -2 -4 -122 -74 0
334 -2 -4 -49 57 -140 0
334 -2 -4 -121 131 -68 0
334 -2 -4 -49 58 -141 0
334 -2 -4 -121 132 -69 0
334 -2 -4 -49 59 -142 0
334 -2 -4 -121 133 -70 0
334 -2 -4 -49 60 -143 0
334 -2 -4 -121 134 -71 0
334 -2 -4 -49 61 -144 0
334 -2 -4 -49 62 -145 0
334 -2 -4 -50 72 -149 0
334 -2 -4 -122 146 -75 0
334 -2 -4 -50 73 -150 0
334 -2 -4 -122 147 -76 0
334 -2 -4 -50 74 -151 0
334 -2 -4 -122 148 -77 0
334 -2 -4 -50 75 -152 0
334 -2 -4 -122 149 -78 0
334 -2 -4 -50 76 -153 0
334 -2 -4 -122 150 -79 0
334 -2 -4 -50 77 -154 0
334 -2 -4 -122 151 -80 0
334 -2 -4 -50 78 -155 0
334 -2 -4 -122 152 -81 0
334 -2 -5 52 159 0
334 -2 -5 -52 -183 0
334 -2 -5 -52 -184 0
334 -2 -5 -52 -185 0
334 -2 -5 -159 -72 0
334 -2 -5 -159 -73 0
334 -2 -5 -159 -74 0
334 -2 -5 -52 72 -186 0
334 -2 -5 -159 183 -75 0
334 -2 -5 -52 73 -187 0
334 -2 -5 -159 184 -76 0
334 -2 -5 -52 74 -188 0
334 -2 -5 -159 185 -77 0
334 -2 -5 -52 75 -189 0
334 -2 -5 -159 186 -78 0
334 -2 -5 -52 76 -190 0
334 -2 -5 -159 187 -79 0
334 -2 -5 -52 77 -191 0
334 -2 -5 -159 188 -80 0
334 -2 -5 -52 78 -192 0
334 -2 -5 -159 189 -81 0
334 -2 -5 51 158 52 159 0
334 -2 -5 -51 -168 0
334 -2 -5 -51 -169 0
334 -2 -5 -51 -170 0
334 -2 -5 -51 -171 0
334 -2 -5 -51 -172 0
334 -2 -5 -51 -173 0
334 -2 -5 -51 -174 0
334 -2 -5 -51 -175 0
334 -2 -5 -51 -176 0
334 -2 -5 -158 -57 0
334 -2 -5 -158 -58 0
334 -2 -5 -158 -59 0
334 -2 -5 -158 -60 0
334 -2 -5 -158 -61 0
334 -2 -5 -158 -62 0
334 -2 -5 -158 -63 0
334 -2 -5 -158 -64 0
334 -2 -5 -158 -65 0
334 -2 -5 -158 -66 0
334 -2 -5 -158 -67 0
334 -2 -5 -158 -68 0
334 -2 -5 -52 -183 0
334 -2 -5 -52 -184 0
334 -2 -5 -52 -185 0
334 -2 -5 -159 -72 0
334 -2 -5 -159 -73 0
334 -2 -5 -159 -74 0
334 -2 -5 -51 57 -177 0
334 -2 -5 -158 168 -69 0
334 -2 -5 -51 58 -178 0
334 -2 -5 -158 169 -70 0
334 -2 -5 -51 59 -179 0
334 -2 -5 -158 170 -71 0
334 -2 -5 -51 60 -180 0
334 -2 -5 -51 61 -181 0
334 -2 -5 -51 62 -182 0
334 -2 -5 -52 72 -186 0
334 -2 -5 -159 183 -75 0
334 -2 -5 -52 73 -187 0
334 -2 -5 -159 184 -76 0
334 -2 -5 -52 74 -188 0
334 -2 -5 -159 185 -77 0
334 -2 -5 -52 75 -189 0
334 -2 -5 -159 186 -78 0
334 -2 -5 -52 76 -190 0
334 -2 -5 -159 187 -79 0
334 -2 -5 -52 77 -191 0
334 -2 -5 -159 188 -80 0
334 -2 -5 -52 78 -192 0
334 -2 -5 -159 189 -81 0
334 -2 -6 54 196 0
334 -2 -6 -54 -220 0
334 -2 -6 -54 -221 0
334 -2 -6 -54 -222 0
334 -2 -6 -196 -72 0
334 -2 -6 -54 72 -223 0
334 -2 -6 -196 220 -73 0
334 -2 -6 -54 73 -224 0
334 -2 -6 -196 221 -74 0
334 -2 -6 -54 74 -225 0
334 -2 -6 -196 222 -75 0
334 -2 -6 -54 75 -226 0
334 -2 -6 -196 223 -76 0
334 -2 -6 -54 76 -227 0
334 -2 -6 -196 224 -77 0
334 -2 -6 -54 77 -228 0
334 -2 -6 -196 225 -78 0
334 -2 -6 -54 78 -229 0
334 -2 -6 -196 226 -79 0
334 -2 -6 53 195 54 196 0
334 -2 -6 -53 -205 0
334 -2 -6 -53 -206 0
334 -2 -6 -53 -207 0
334 -2 -6 -53 -208 0
334 -2 -6 -53 -209 0
334 -2 -6 -53 -210 0
334 -2 -6 -53 -211 0
334 -2 -6 -53 -212 0
334 -2 -6 -53 -213 0
334 -2 -6 -195 -57 0
334 -2 -6 -195 -58 0
334 -2 -6 -195 -59 0
334 -2 -6 -195 -60 0
334 -2 -6 -195 -61 0
334 -2 -6 -195 -62 0
334 -2 -6 -195 -63 0
334 -2 -6 -195 -64 0
334 -2 -6 -195 -65 0
334 -2 -6 -195 -66 0
334 -2 -6 -195 -67 0
334 -2 -6 -54 -220 0
334 -2 -6 -54 -221 0
334 -2 -6 -54 -222 0
334 -2 -6 -196 -72 0
334 -2 -6 -53 57 -214 0
334 -2 -6 -195 205 -68 0
334 -2 -6 -53 58 -215 0
334 -2 -6 -195 206 -69 0
334 -2 -6 -53 59 -216 0
334 -2 -6 -195 207 -70 0
334 -2 -6 -53 60 -217 0
334 -2 -6 -195 208 -71 0
334 -2 -6 -53 61 -218 0
334 -2 -6 -53 62 -219 0
334 -2 -6 -54 72 -223 0
334 -2 -6 -196 220 -73 0
334 -2 -6 -54 73 -224 0
334 -2 -6 -196 221 -74 0
334 -2 -6 -54 74 -225 0
334 -2 -6 -196 222 -75 0
334 -2 -6 -54 75 -226 0
334 -2 -6 -196 223 -76 0
334 -2 -6 -54 76 -227 0
334 -2 -6 -196 224 -77 0
334 -2 -6 -54 77 -228 0
334 -2 -6 -196 225 -78 0
334 -2 -6 -54 78 -229 0
334 -2 -6 -196 226 -79 0
334 -2 -7 55 232 0
334 -2 -7 -55 -242 0
334 -2 -7 -55 -243 0
334 -2 -7 -55 -244 0
334 -2 -7 -55 -245 0
334 -2 -7 -55 -246 0
334 -2 -7 -55 -247 0
334 -2 -7 -55 -248 0
334 -2 -7 -55 -249 0
334 -2 -7 -55 -250 0
334 -2 -7 -232 -57 0
334 -2 -7 -232 -58 0
334 -2 -7 -55 57 -251 0
334 -2 -7 -232 242 -59 0
334 -2 -7 -55 58 -252 0
334 -2 -7 -232 243 -60 0
334 -2 -7 -55 59 -253 0
334 -2 -7 -232 244 -61 0
334 -2 -7 -55 60 -254 0
334 -2 -7 -232 245 -62 0
334 -2 -7 -55 61 -255 0
334 -2 -7 -232 246 -63 0
334 -2 -7 -55 62 -256 0
334 -2 -7 -232 247 -64 0
334 -3 -4 87 124 0
334 -3 -4 -87 -146 0
334 -3 -4 -87 -147 0
334 -3 -4 -124 -109 0
334 -3 -4 -124 -110 0
334 -3 -4 -124 -111 0
334 -3 -4 -87 109 -148 0
334 -3 -4 -124 146 -112 0
334 -3 -4 -87 110 -149 0
334 -3 -4 -124 147 -113 0
334 -3 -4 -87 111 -150 0
334 -3 -4 -124 148 -114 0
334 -3 -4 -87 112 -151 0
334 -3 -4 -124 149 -115 0
334 -3 -4 -87 113 -152 0
334 -3 -4 -124 150 -116 0
334 -3 -4 -87 114 -153 0
334 -3 -4 -124 151 -117 0
334 -3 -4 -87 115 -154 0
334 -3 -4 -124 152 -118 0
334 -3 -4 -87 116 -155 0
334 -3 -4 123 87 124 0
334 -3 -4 -123 -94 0
334 -3 -4 -123 -95 0
334 -3 -4 -123 -96 0
334 -3 -4 -123 -97 0
334 -3 -4 -123 -98 0
334 -3 -4 -123 -99 0
334 -3 -4 -123 -100 0
334 -3 -4 -123 -101 0
334 -3 -4 -123 -102 0
334 -3 -4 -123 -103 0
334 -3 -4 -123 -104 0
334 -3 -4 -87 -146 0
334 -3 -4 -87 -147 0
334 -3 -4 -124 -109 0
334 -3 -4 -124 -110 0
334 -3 -4 -124 -111 0
334 -3 -4 -123 131 -105 0
334 -3 -4 -123 132 -106 0
334 -3 -4 -123 133 -107 0
334 -3 -4 -87 109 -148 0
334 -3 -4 -124 146 -112 0
334 -3 -4 -87 110 -149 0
334 -3 -4 -124 147 -113 0
334 -3 -4 -87 111 -150 0
334 -3 -4 -124 148 -114 0
334 -3 -4 -87 112 -151 0
334 -3 -4 -124 149 -115 0
334 -3 -4 -87 113 -152 0
334 -3 -4 -124 150 -116 0
334 -3 -4 -87 114 -153 0
334 -3 -4 -124 151 -117 0
334 -3 -4 -87 115 -154 0
334 -3 -4 -124 152 -118 0
334 -3 -4 -87 116 -155 0
334 -3 -5 89 161 0
334 -3 -5 -89 -183 0
334 -3 -5 -89 -184 0
334 -3 -5 -161 -109 0
334 -3 -5 -161 -110 0
334 -3 -5 -161 -111 0
334 -3 -5 -89 109 -185 0
334 -3 -5 -161 183 -112 0
334 -3 -5 -89 110 -186 0
334 -3 -5 -161 184 -113 0
334 -3 -5 -89 111 -187 0
334 -3 -5 -161 185 -114 0
334 -3 -5 -89 112 -188 0
334 -3 -5 -161 186 -115 0
334 -3 -5 -89 113 -189 0
334 -3 -5 -161 187 -116 0
334 -3 -5 -89 114 -190 0
334 -3 -5 -161 188 -117 0
334 -3 -5 -89 115 -191 0
334 -3 -5 -161 189 -118 0
334 -3 -5 -89 116 -192 0
334 -3 -5 160 89 161 0
334 -3 -5 -160 -94 0
334 -3 -5 -160 -95 0
334 -3 -5 -160 -96 0
334 -3 -5 -160 -97 0
334 -3 -5 -160 -98 0
334 -3 -5 -160 -99 0
334 -3 -5 -160 -100 0
334 -3 -5 -160 -101 0
334 -3 -5 -160 -102 0
334 -3 -5 -160 -103 0
334 -3 -5 -160 -104 0
334 -3 -5 -160 -105 0
334 -3 -5 -89 -183 0
334 -3 -5 -89 -184 0
334 -3 -5 -161 -109 0
334 -3 -5 -161 -110 0
334 -3 -5 -161 -111 0
334 -3 -5 -160 168 -106 0
334 -3 -5 -160 169 -107 0
334 -3 -5 -160 170 -108 0
334 -3 -5 -89 109 -185 0
334 -3 -5 -161 183 -112 0
334 -3 -5 -89 110 -186 0
334 -3 -5 -161 184 -113 0
334 -3 -5 -89 111 -187 0
334 -3 -5 -161 185 -114 0
334 -3 -5 -89 112 -188 0
334 -3 -5 -161 186 -115 0
334 -3 -5 -89 113 -189 0
334 -3 -5 -161 187 -116 0
334 -3 -5 -89 114 -190 0
334 -3 -5 -161 188 -117 0
334 -3 -5 -89 115 -191 0
334 -3 -5 -161 189 -118 0
334 -3 -5 -89 116 -192 0
334 -3 -6 91 198 0
334 -3 -6 -91 -220 0
334 -3 -6 -91 -221 0
334 -3 -6 -198 -109 0
334 -3 -6 -91 109 -222 0
334 -3 -6 -198 220 -110 0
334 -3 -6 -91 110 -223 0
334 -3 -6 -198 221 -111 0
334 -3 -6 -91 111 -224 0
334 -3 -6 -198 222 -112 0
334 -3 -6 -91 112 -225 0
334 -3 -6 -198 223 -113 0
334 -3 -6 -91 113 -226 0
334 -3 -6 -198 224 -114 0
334 -3 -6 -91 114 -227 0
334 -3 -6 -198 225 -115 0
334 -3 -6 -91 115 -228 0
334 -3 -6 -198 226 -116 0
334 -3 -6 -91 116 -229 0
334 -3 -6 -198 227 -117 0
334 -3 -6 197 91 198 0
334 -3 -6 -197 -94 0
334 -3 -6 -197 -95 0
334 -3 -6 -197 -96 0
334 -3 -6 -197 -97 0
334 -3 -6 -197 -98 0
334 -3 -6 -197 -99 0
334 -3 -6 -197 -100 0
334 -3 -6 -197 -101 0
334 -3 -6 -197 -102 0
334 -3 -6 -197 -103 0
334 -3 -6 -197 -104 0
334 -3 -6 -91 -220 0
334 -3 -6 -91 -221 0
334 -3 -6 -198 -109 0
334 -3 -6 -197 205 -105 0
334 -3 -6 -197 206 -106 0
334 -3 -6 -197 207 -107 0
334 -3 -6 -91 109 -222 0
334 -3 -6 -198 220 -110 0
334 -3 -6 -91 110 -223 0
334 -3 -6 -198 221 -111 0
334 -3 -6 -91 111 -224 0
334 -3 -6 -198 222 -112 0
334 -3 -6 -91 112 -225 0
334 -3 -6 -198 223 -113 0
334 -3 -6 -91 113 -226 0
334 -3 -6 -198 224 -114 0
334 -3 -6 -91 114 -227 0
334 -3 -6 -198 225 -115 0
334 -3 -6 -91 115 -228 0
334 -3 -6 -198 226 -116 0
334 -3 -6 -91 116 -229 0
334 -3 -6 -198 227 -117 0
334 -3 -7 92 234 0
334 -3 -7 -92 -242 0
334 -3 -7 -92 -243 0
334 -3 -7 -92 -244 0
334 -3 -7 -92 -245 0
334 -3 -7 -92 -246 0
334 -3 -7 -92 -247 0
334 -3 -7 -92 -248 0
334 -3 -7 -92 -249 0
334 -3 -7 -92 -250 0
334 -3 -7 -92 -251 0
334 -3 -7 -92 -252 0
334 -3 -7 -92 -253 0
334 -3 -7 -234 -94 0
334 -3 -7 -234 -95 0
334 -3 -7 -92 94 -254 0
334 -3 -7 -234 242 -96 0
334 -3 -7 -92 95 -255 0
334 -3 -7 -234 243 -97 0
334 -3 -7 -92 96 -256 0
334 -3 -7 -234 244 -98 0
334 -4 -5 126 163 0
334 -4 -5 -126 -183 0
334 -4 -5 -126 -184 0
334 -4 -5 -126 -185 0
334 -4 -5 -163 -146 0
334 -4 -5 -163 -147 0
334 -4 -5 -163 -148 0
334 -4 -5 -126 146 -186 0
334 -4 -5 -163 183 -149 0
334 -4 -5 -126 147 -187 0
334 -4 -5 -163 184 -150 0
334 -4 -5 -126 148 -188 0
334 -4 -5 -163 185 -151 0
334 -4 -5 -126 149 -189 0
334 -4 -5 -163 186 -152 0
334 -4 -5 -126 150 -190 0
334 -4 -5 -163 187 -153 0
334 -4 -5 -126 151 -191 0
334 -4 -5 -163 188 -154 0
334 -4 -5 -126 152 -192 0
334 -4 -5 -163 189 -155 0
334 -4 -5 125 162 126 163 0
334 -4 -5 -125 -168 0
334 -4 -5 -125 -169 0
334 -4 -5 -125 -170 0
334 -4 -5 -125 -171 0
334 -4 -5 -125 -172 0
334 -4 -5 -125 -173 0
334 -4 -5 -125 -174 0
334 -4 -5 -125 -175 0
334 -4 -5 -125 -176 0
334 -4 -5 -125 -177 0
334 -4 -5 -125 -178 0
334 -4 -5 -162 -131 0
334 -4 -5 -162 -132 0
334 -4 -5 -162 -133 0
334 -4 -5 -162 -134 0
334 -4 -5 -162 -135 0
334 -4 -5 -162 -136 0
334 -4 -5 -162 -137 0
334 -4 -5 -162 -138 0
334 -4 -5 -162 -139 0
334 -4 -5 -162 -140 0
334 -4 -5 -162 -141 0
334 -4 -5 -162 -142 0
334 -4 -5 -126 -183 0
334 -4 -5 -126 -184 0
334 -4 -5 -126 -185 0
334 -4 -5 -163 -146 0
334 -4 -5 -163 -147 0
334 -4 -5 -163 -148 0
334 -4 -5 -125 131 -179 0
334 -4 -5 -162 168 -143 0
334 -4 -5 -125 132 -180 0
334 -4 -5 -162 169 -144 0
334 -4 -5 -125 133 -181 0
334 -4 -5 -162 170 -145 0
334 -4 -5 -125 134 -182 0
334 -4 -5 -126 146 -186 0
334 -4 -5 -163 183 -149 0
334 -4 -5 -126 147 -187 0
334 -4 -5 -163 184 -150 0
334 -4 -5 -126 148 -188 0
334 -4 -5 -163 185 -151 0
334 -4 -5 -126 149 -189 0
334 -4 -5 -163 186 -152 0
334 -4 -5 -126 150 -190 0
334 -4 -5 -163 187 -153 0
334 -4 -5 -126 151 -191 0
334 -4 -5 -163 188 -154 0
334 -4 -5 -126 152 -192 0
334 -4 -5 -163 189 -155 0
334 -4 -6 128 200 0
334 -4 -6 -128 -220 0
334 -4 -6 -128 -221 0
334 -4 -6 -128 -222 0
334 -4 -6 -200 -146 0
334 -4 -6 -128 146 -223 0
334 -4 -6 -200 220 -147 0
334 -4 -6 -128 147 -224 0
334 -4 -6 -200 221 -148 0
334 -4 -6 -128 148 -225 0
334 -4 -6 -200 222 -149 0
334 -4 -6 -128 149 -226 0
334 -4 -6 -200 223 -150 0
334 -4 -6 -128 150 -227 0
334 -4 -6 -200 224 -151 0
334 -4 -6 -128 151 -228 0
334 -4 -6 -200 225 -152 0
334 -4 -6 -128 152 -229 0
334 -4 -6 -200 226 -153 0
334 -4 -6 127 199 128 200 0
334 -4 -6 -127 -205 0
334 -4 -6 -127 -206 0
334 -4 -6 -127 -207 0
334 -4 -6 -127 -208 0
334 -4 -6 -127 -209 0
334 -4 -6 -127 -210 0
334 -4 -6 -127 -211 0
334 -4 -6 -127 -212 0
334 -4 -6 -127 -213 0
334 -4 -6 -127 -214 0
334 -4 -6 -127 -215 0
334 -4 -6 -199 -131 0
334 -4 -6 -199 -132 0
334 -4 -6 -199 -133 0
334 -4 -6 -199 -134 0
334 -4 -6 -199 -135 0
334 -4 -6 -199 -136 0
334 -4 -6 -199 -137 0
334 -4 -6 -199 -138 0
334 -4 -6 -199 -139 0
334 -4 -6 -199 -140 0
334 -4 -6 -199 -141 0
334 -4 -6 -128 -220 0
334 -4 -6 -128 -221 0
334 -4 -6 -128 -222 0
334 -4 -6 -200 -146 0
334 -4 -6 -127 131 -216 0
334 -4 -6 -199 205 -142 0
334 -4 -6 -127 132 -217 0
334 -4 -6 -199 206 -143 0
334 -4 -6 -127 133 -218 0
334 -4 -6 -199 207 -144 0
334 -4 -6 -127 134 -219 0
334 -4 -6 -199 208 -145 0
334 -4 -6 -128 146 -223 0
334 -4 -6 -200 220 -147 0
334 -4 -6 -128 147 -224 0
334 -4 -6 -200 221 -148 0
334 -4 -6 -128 148 -225 0
334 -4 -6 -200 222 -149 0
334 -4 -6 -128 149 -226 0
334 -4 -6 -200 223 -150 0
334 -4 -6 -128 150 -227 0
334 -4 -6 -200 224 -151 0
334 -4 -6 -128 151 -228 0
334 -4 -6 -200 225 -152 0
334 -4 -6 -128 152 -229 0
334 -4 -6 -200 226 -153 0
334 -4 -7 129 236 0
334 -4 -7 -129 -242 0
334 -4 -7 -129 -243 0
334 -4 -7 -129 -244 0
334 -4 -7 -129 -245 0
334 -4 -7 -129 -246 0
334 -4 -7 -129 -247 0
334 -4 -7 -129 -248 0
334 -4 -7 -129 -249 0
334 -4 -7 -129 -250 0
334 -4 -7 -129 -251 0
334 -4 -7 -129 -252 0
334 -4 -7 -236 -131 0
334 -4 -7 -236 -132 0
334 -4 -7 -129 131 -253 0
334 -4 -7 -236 242 -133 0
334 -4 -7 -129 132 -254 0
334 -4 -7 -236 243 -134 0
334 -4 -7 -129 133 -255 0
334 -4 -7 -236 244 -135 0
334 -4 -7 -129 134 -256 0
334 -4 -7 -236 245 -136 0
334 -5 -6 165 202 0
334 -5 -6 -165 -220 0
334 -5 -6 -165 -221 0
334 -5 -6 -165 -222 0
334 -5 -6 -202 -183 0
334 -5 -6 -165 183 -223 0
334 -5 -6 -202 220 -184 0
334 -5 -6 -165 184 -224 0
334 -5 -6 -202 221 -185 0
334 -5 -6 -165 185 -225 0
334 -5 -6 -202 222 -186 0
334 -5 -6 -165 186 -226 0
334 -5 -6 -202 223 -187 0
334 -5 -6 -165 187 -227 0
334 -5 -6 -202 224 -188 0
334 -5 -6 -165 188 -228 0
334 -5 -6 -202 225 -189 0
334 -5 -6 -165 189 -229 0
334 -5 -6 -202 226 -190 0
334 -5 -6 201 165 202 0
334 -5 -6 -201 -168 0
334 -5 -6 -201 -169 0
334 -5 -6 -201 -170 0
334 -5 -6 -201 -171 0
334 -5 -6 -201 -172 0
334 -5 -6 -201 -173 0
334 -5 -6 -201 -174 0
334 -5 -6 -201 -175 0
334 -5 -6 -201 -176 0
334 -5 -6 -201 -177 0
334 -5 -6 -201 -178 0
334 -5 -6 -165 -220 0
334 -5 -6 -165 -221 0
334 -5 -6 -165 -222 0
334 -5 -6 -202 -183 0
334 -5 -6 -201 205 -179 0
334 -5 -6 -201 206 -180 0
334 -5 -6 -201 207 -181 0
334 -5 -6 -165 183 -223 0
334 -5 -6 -202 220 -184 0
334 -5 -6 -165 184 -224 0
334 -5 -6 -202 221 -185 0
334 -5 -6 -165 185 -225 0
334 -5 -6 -202 222 -186 0
334 -5 -6 -165 186 -226 0
334 -5 -6 -202 223 -187 0
334 -5 -6 -165 187 -227 0
334 -5 -6 -202 224 -188 0
334 -5 -6 -165 188 -228 0
334 -5 -6 -202 225 -189 0
334 -5 -6 -165 189 -229 0
334 -5 -6 -202 226 -190 0
334 -5 -7 166 238 0
334 -5 -7 -166 -242 0
334 -5 -7 -166 -243 0
334 -5 -7 -166 -244 0
334 -5 -7 -166 -245 0
334 -5 -7 -166 -246 0
334 -5 -7 -166 -247 0
334 -5 -7 -166 -248 0
334 -5 -7 -166 -249 0
334 -5 -7 -166 -250 0
334 -5 -7 -166 -251 0
334 -5 -7 -166 -252 0
334 -5 -7 -166 -253 0
334 -5 -7 -238 -168 0
334 -5 -7 -238 -169 0
334 -5 -7 -166 168 -254 0
334 -5 -7 -238 242 -170 0
334 -5 -7 -166 169 -255 0
334 -5 -7 -238 243 -171 0
334 -5 -7 -166 170 -256 0
334 -5 -7 -238 244 -172 0
334 -6 -7 203 240 0
334 -6 -7 -203 -242 0
334 -6 -7 -203 -243 0
334 -6 -7 -203 -244 0
334 -6 -7 -203 -245 0
334 -6 -7 -203 -246 0
334 -6 -7 -203 -247 0
334 -6 -7 -203 -248 0
334 -6 -7 -203 -249 0
334 -6 -7 -203 -250 0
334 -6 -7 -203 -251 0
334 -6 -7 -203 -252 0
334 -6 -7 -240 -205 0
334 -6 -7 -240 -206 0
334 -6 -7 -203 205 -253 0
334 -6 -7 -240 242 -207 0
334 -6 -7 -203 206 -254 0
334 -6 -7 -240 243 -208 0
334 -6 -7 -203 207 -255 0
334 -6 -7 -240 244 -209 0
334 -6 -7 -203 208 -256 0
334 -6 -7 -240 245 -210 0
334 25 -1 0
334 26 -1 0
334 27 -1 0
334 28 -1 0
334 29 -1 0
334 30 -1 0
334 31 -1 0
334 32 -1 0
334 33 -1 0
334 34 -1 0
334 42 -1 0
334 43 -1 0
334 44 -1 0
334 63 -2 0
334 64 -2 0
334 65 -2 0
334 66 -2 0
334 67 -2 0
334 68 -2 0
334 69 -2 0
334 70 -2 0
334 71 -2 0
334 79 -2 0
334 80 -2 0
334 81 -2 0
334 97 -3 0
334 98 -3 0
334 99 -3 0
334 100 -3 0
334 101 -3 0
334 102 -3 0
334 103 -3 0
334 104 -3 0
334 105 -3 0
334 106 -3 0
334 107 -3 0
334 108 -3 0
334 117 -3 0
334 118 -3 0
334 135 -4 0
334 136 -4 0
334 137 -4 0
334 138 -4 0
334 139 -4 0
334 140 -4 0
334 141 -4 0
334 142 -4 0
334 143 -4 0
334 144 -4 0
334 145 -4 0
334 153 -4 0
334 154 -4 0
334 155 -4 0
334 171 -5 0
334 172 -5 0
334 173 -5 0
334 174 -5 0
334 175 -5 0
334 176 -5 0
334 177 -5 0
334 178 -5 0
334 179 -5 0
334 180 -5 0
334 181 -5 0
334 182 -5 0
334 190 -5 0
334 191 -5 0
334 192 -5 0
334 209 -6 0
334 210 -6 0
334 211 -6 0
334 212 -6 0
334 213 -6 0
334 214 -6 0
334 215 -6 0
334 216 -6 0
334 217 -6 0
334 218 -6 0
334 219 -6 0
334 229 -6 0
334 255 -7 0
334 256 -7 0
334 257 -7 0
334 258 -7 0
334 259 -7 0
334 260 -7 0
334 261 -7 0
334 262 -7 0
334 263 -7 0
334 264 -7 0
334 265 -7 0
334 266 -7 0
